p cnf 7230 17
2108 -2109 0
-1552 2101 0
-602 -1942 -2106 0
-600 -1944 -2104 0
602 -2107 0
600 -2105 0
2106 2107 0
2104 2105 0
2102 2103 0
1554 -2103 0
-1554 -2102 0
1942 -2107 0
1944 -2105 0
-1556 2109 0
-2100 -2101 0
1556 -2109 0
2100 2101 0
